# Solution for model la06
# Objective value = 9.2599999875497554e+02
C 925.999998755
x_0_0 0.000000000
x_0_1 141.000000000
x_0_2 517.000000000
x_0_3 690.999998755
x_0_4 870.999998755
x_1_0 0.000000000
x_1_1 223.000000000
x_1_2 275.000000000
x_1_3 411.000000000
x_1_4 612.000000000
x_2_0 175.000000000
x_2_1 679.000000000
x_2_2 691.000000000
x_2_3 788.999998755
x_2_4 827.999998755
x_3_0 72.000000000
x_3_1 149.000000000
x_3_2 264.000000000
x_3_3 787.999998755
x_3_4 859.999998755
x_4_0 141.000000000
x_4_1 188.000000000
x_4_2 241.000000000
x_4_3 532.000000000
x_4_4 842.999998755
x_5_0 0.000000000
x_5_1 43.000000000
x_5_2 153.000000000
x_5_3 306.000000000
x_5_4 748.999998755
x_6_0 60.000000000
x_6_1 368.000000000
x_6_2 437.000000000
x_6_3 644.000000000
x_6_4 730.000000000
x_7_0 0.000000000
x_7_1 234.000000000
x_7_2 305.000000000
x_7_3 343.000000000
x_7_4 764.999998755
x_8_0 43.000000000
x_8_1 222.000000000
x_8_2 239.000000000
x_8_3 743.999998755
x_8_4 835.999998755
x_9_0 340.000000000
x_9_1 436.000000000
x_9_2 513.000000000
x_9_3 741.999998755
x_9_4 816.999998755
x_10_0 178.000000000
x_10_1 206.000000000
x_10_2 245.000000000
x_10_3 437.000000000
x_10_4 918.999998755
x_11_0 551.000000000
x_11_1 612.000000000
x_11_2 635.000000000
x_11_3 826.999998755
x_11_4 835.999998755
x_12_0 43.000000000
x_12_1 290.000000000
x_12_2 346.000000000
x_12_3 437.000000000
x_12_4 633.000000000
x_13_0 0.000000000
x_13_1 97.000000000
x_13_2 436.000000000
x_13_3 569.000000000
x_13_4 685.000000000
x_14_0 464.000000000
x_14_1 551.000000000
x_14_2 596.000000000
x_14_3 635.000000000
x_14_4 644.000000000
y_0_1_0 1.000000000
y_0_1_1 0.000000000
y_0_1_2 0.000000000
y_0_1_3 1.000000000
y_0_1_4 1.000000000
y_0_2_0 1.000000000
y_0_2_1 0.000000000
y_0_2_2 0.000000000
y_0_2_3 1.000000000
y_0_2_4 0.000000000
y_0_3_0 0.000000000
y_0_3_1 0.000000000
y_0_3_2 0.000000000
y_0_3_3 1.000000000
y_0_3_4 1.000000000
y_0_4_0 0.000000000
y_0_4_1 0.000000000
y_0_4_2 0.000000000
y_0_4_3 1.000000000
y_0_4_4 1.000000000
y_0_5_0 1.000000000
y_0_5_1 0.000000000
y_0_5_2 1.000000000
y_0_5_3 1.000000000
y_0_5_4 0.000000000
y_0_6_0 1.000000000
y_0_6_1 0.000000000
y_0_6_2 0.000000000
y_0_6_3 1.000000000
y_0_6_4 0.000000000
y_0_7_0 1.000000000
y_0_7_1 0.000000000
y_0_7_2 0.000000000
y_0_7_3 1.000000000
y_0_7_4 1.000000000
y_0_8_0 0.000000000
y_0_8_1 0.000000000
y_0_8_2 1.000000000
y_0_8_3 1.000000000
y_0_8_4 1.000000000
y_0_9_0 1.000000000
y_0_9_1 0.000000000
y_0_9_2 0.000000000
y_0_9_3 1.000000000
y_0_9_4 1.000000000
y_0_10_0 1.000000000
y_0_10_1 0.000000000
y_0_10_2 0.000000000
y_0_10_3 1.000000000
y_0_10_4 1.000000000
y_0_11_0 1.000000000
y_0_11_1 0.000000000
y_0_11_2 0.000000000
y_0_11_3 1.000000000
y_0_11_4 0.000000000
y_0_12_0 1.000000000
y_0_12_1 0.000000000
y_0_12_2 0.000000000
y_0_12_3 1.000000000
y_0_12_4 1.000000000
y_0_13_0 1.000000000
y_0_13_1 0.000000000
y_0_13_2 0.000000000
y_0_13_3 1.000000000
y_0_13_4 1.000000000
y_0_14_0 1.000000000
y_0_14_1 0.000000000
y_0_14_2 0.000000000
y_0_14_3 1.000000000
y_0_14_4 0.000000000
y_1_2_0 0.000000000
y_1_2_1 0.000000000
y_1_2_2 1.000000000
y_1_2_3 0.000000000
y_1_2_4 0.000000000
y_1_3_0 0.000000000
y_1_3_1 1.000000000
y_1_3_2 0.000000000
y_1_3_3 0.000000000
y_1_3_4 0.000000000
y_1_4_0 0.000000000
y_1_4_1 0.000000000
y_1_4_2 1.000000000
y_1_4_3 0.000000000
y_1_4_4 1.000000000
y_1_5_0 1.000000000
y_1_5_1 1.000000000
y_1_5_2 1.000000000
y_1_5_3 0.000000000
y_1_5_4 0.000000000
y_1_6_0 1.000000000
y_1_6_1 0.000000000
y_1_6_2 0.000000000
y_1_6_3 0.000000000
y_1_6_4 0.000000000
y_1_7_0 1.000000000
y_1_7_1 1.000000000
y_1_7_2 1.000000000
y_1_7_3 0.000000000
y_1_7_4 0.000000000
y_1_8_0 0.000000000
y_1_8_1 0.000000000
y_1_8_2 1.000000000
y_1_8_3 0.000000000
y_1_8_4 0.000000000
y_1_9_0 1.000000000
y_1_9_1 0.000000000
y_1_9_2 0.000000000
y_1_9_3 0.000000000
y_1_9_4 0.000000000
y_1_10_0 1.000000000
y_1_10_1 0.000000000
y_1_10_2 1.000000000
y_1_10_3 0.000000000
y_1_10_4 1.000000000
y_1_11_0 1.000000000
y_1_11_1 0.000000000
y_1_11_2 0.000000000
y_1_11_3 0.000000000
y_1_11_4 0.000000000
y_1_12_0 0.000000000
y_1_12_1 0.000000000
y_1_12_2 0.000000000
y_1_12_3 0.000000000
y_1_12_4 1.000000000
y_1_13_0 1.000000000
y_1_13_1 1.000000000
y_1_13_2 0.000000000
y_1_13_3 0.000000000
y_1_13_4 1.000000000
y_1_14_0 1.000000000
y_1_14_1 0.000000000
y_1_14_2 0.000000000
y_1_14_3 0.000000000
y_1_14_4 0.000000000
y_2_3_0 0.000000000
y_2_3_1 1.000000000
y_2_3_2 0.000000000
y_2_3_3 1.000000000
y_2_3_4 1.000000000
y_2_4_0 0.000000000
y_2_4_1 1.000000000
y_2_4_2 0.000000000
y_2_4_3 1.000000000
y_2_4_4 1.000000000
y_2_5_0 1.000000000
y_2_5_1 1.000000000
y_2_5_2 1.000000000
y_2_5_3 1.000000000
y_2_5_4 1.000000000
y_2_6_0 1.000000000
y_2_6_1 1.000000000
y_2_6_2 0.000000000
y_2_6_3 1.000000000
y_2_6_4 1.000000000
y_2_7_0 1.000000000
y_2_7_1 1.000000000
y_2_7_2 0.000000000
y_2_7_3 1.000000000
y_2_7_4 1.000000000
y_2_8_0 0.000000000
y_2_8_1 0.000000000
y_2_8_2 1.000000000
y_2_8_3 1.000000000
y_2_8_4 1.000000000
y_2_9_0 1.000000000
y_2_9_1 0.000000000
y_2_9_2 0.000000000
y_2_9_3 1.000000000
y_2_9_4 1.000000000
y_2_10_0 1.000000000
y_2_10_1 0.000000000
y_2_10_2 0.000000000
y_2_10_3 1.000000000
y_2_10_4 1.000000000
y_2_11_0 1.000000000
y_2_11_1 0.000000000
y_2_11_2 0.000000000
y_2_11_3 0.000000000
y_2_11_4 1.000000000
y_2_12_0 1.000000000
y_2_12_1 1.000000000
y_2_12_2 0.000000000
y_2_12_3 1.000000000
y_2_12_4 1.000000000
y_2_13_0 1.000000000
y_2_13_1 1.000000000
y_2_13_2 0.000000000
y_2_13_3 1.000000000
y_2_13_4 1.000000000
y_2_14_0 1.000000000
y_2_14_1 1.000000000
y_2_14_2 0.000000000
y_2_14_3 1.000000000
y_2_14_4 1.000000000
y_3_4_0 0.000000000
y_3_4_1 0.000000000
y_3_4_2 1.000000000
y_3_4_3 0.000000000
y_3_4_4 1.000000000
y_3_5_0 1.000000000
y_3_5_1 1.000000000
y_3_5_2 1.000000000
y_3_5_3 0.000000000
y_3_5_4 0.000000000
y_3_6_0 1.000000000
y_3_6_1 0.000000000
y_3_6_2 1.000000000
y_3_6_3 0.000000000
y_3_6_4 0.000000000
y_3_7_0 1.000000000
y_3_7_1 0.000000000
y_3_7_2 1.000000000
y_3_7_3 0.000000000
y_3_7_4 0.000000000
y_3_8_0 1.000000000
y_3_8_1 0.000000000
y_3_8_2 1.000000000
y_3_8_3 0.000000000
y_3_8_4 1.000000000
y_3_9_0 1.000000000
y_3_9_1 0.000000000
y_3_9_2 1.000000000
y_3_9_3 0.000000000
y_3_9_4 0.000000000
y_3_10_0 1.000000000
y_3_10_1 0.000000000
y_3_10_2 1.000000000
y_3_10_3 0.000000000
y_3_10_4 1.000000000
y_3_11_0 1.000000000
y_3_11_1 0.000000000
y_3_11_2 1.000000000
y_3_11_3 0.000000000
y_3_11_4 0.000000000
y_3_12_0 1.000000000
y_3_12_1 0.000000000
y_3_12_2 1.000000000
y_3_12_3 0.000000000
y_3_12_4 1.000000000
y_3_13_0 1.000000000
y_3_13_1 1.000000000
y_3_13_2 1.000000000
y_3_13_3 0.000000000
y_3_13_4 1.000000000
y_3_14_0 1.000000000
y_3_14_1 0.000000000
y_3_14_2 1.000000000
y_3_14_3 0.000000000
y_3_14_4 0.000000000
y_4_5_0 1.000000000
y_4_5_1 1.000000000
y_4_5_2 1.000000000
y_4_5_3 0.000000000
y_4_5_4 0.000000000
y_4_6_0 1.000000000
y_4_6_1 1.000000000
y_4_6_2 0.000000000
y_4_6_3 0.000000000
y_4_6_4 0.000000000
y_4_7_0 1.000000000
y_4_7_1 1.000000000
y_4_7_2 0.000000000
y_4_7_3 0.000000000
y_4_7_4 0.000000000
y_4_8_0 1.000000000
y_4_8_1 0.000000000
y_4_8_2 1.000000000
y_4_8_3 0.000000000
y_4_8_4 0.000000000
y_4_9_0 1.000000000
y_4_9_1 0.000000000
y_4_9_2 0.000000000
y_4_9_3 0.000000000
y_4_9_4 0.000000000
y_4_10_0 1.000000000
y_4_10_1 0.000000000
y_4_10_2 1.000000000
y_4_10_3 0.000000000
y_4_10_4 0.000000000
y_4_11_0 1.000000000
y_4_11_1 0.000000000
y_4_11_2 0.000000000
y_4_11_3 0.000000000
y_4_11_4 0.000000000
y_4_12_0 1.000000000
y_4_12_1 1.000000000
y_4_12_2 0.000000000
y_4_12_3 0.000000000
y_4_12_4 1.000000000
y_4_13_0 1.000000000
y_4_13_1 1.000000000
y_4_13_2 0.000000000
y_4_13_3 0.000000000
y_4_13_4 1.000000000
y_4_14_0 1.000000000
y_4_14_1 0.000000000
y_4_14_2 0.000000000
y_4_14_3 0.000000000
y_4_14_4 0.000000000
y_5_6_0 1.000000000
y_5_6_1 0.000000000
y_5_6_2 0.000000000
y_5_6_3 0.000000000
y_5_6_4 1.000000000
y_5_7_0 1.000000000
y_5_7_1 0.000000000
y_5_7_2 0.000000000
y_5_7_3 0.000000000
y_5_7_4 1.000000000
y_5_8_0 0.000000000
y_5_8_1 0.000000000
y_5_8_2 0.000000000
y_5_8_3 1.000000000
y_5_8_4 1.000000000
y_5_9_0 0.000000000
y_5_9_1 0.000000000
y_5_9_2 0.000000000
y_5_9_3 0.000000000
y_5_9_4 1.000000000
y_5_10_0 0.000000000
y_5_10_1 0.000000000
y_5_10_2 0.000000000
y_5_10_3 0.000000000
y_5_10_4 1.000000000
y_5_11_0 0.000000000
y_5_11_1 0.000000000
y_5_11_2 0.000000000
y_5_11_3 0.000000000
y_5_11_4 1.000000000
y_5_12_0 0.000000000
y_5_12_1 0.000000000
y_5_12_2 0.000000000
y_5_12_3 1.000000000
y_5_12_4 1.000000000
y_5_13_0 0.000000000
y_5_13_1 0.000000000
y_5_13_2 0.000000000
y_5_13_3 0.000000000
y_5_13_4 1.000000000
y_5_14_0 0.000000000
y_5_14_1 0.000000000
y_5_14_2 0.000000000
y_5_14_3 0.000000000
y_5_14_4 1.000000000
y_6_7_0 1.000000000
y_6_7_1 1.000000000
y_6_7_2 1.000000000
y_6_7_3 0.000000000
y_6_7_4 1.000000000
y_6_8_0 0.000000000
y_6_8_1 0.000000000
y_6_8_2 1.000000000
y_6_8_3 1.000000000
y_6_8_4 1.000000000
y_6_9_0 0.000000000
y_6_9_1 0.000000000
y_6_9_2 0.000000000
y_6_9_3 0.000000000
y_6_9_4 1.000000000
y_6_10_0 0.000000000
y_6_10_1 0.000000000
y_6_10_2 1.000000000
y_6_10_3 0.000000000
y_6_10_4 1.000000000
y_6_11_0 0.000000000
y_6_11_1 0.000000000
y_6_11_2 1.000000000
y_6_11_3 0.000000000
y_6_11_4 1.000000000
y_6_12_0 0.000000000
y_6_12_1 1.000000000
y_6_12_2 1.000000000
y_6_12_3 1.000000000
y_6_12_4 1.000000000
y_6_13_0 0.000000000
y_6_13_1 1.000000000
y_6_13_2 1.000000000
y_6_13_3 0.000000000
y_6_13_4 1.000000000
y_6_14_0 0.000000000
y_6_14_1 0.000000000
y_6_14_2 1.000000000
y_6_14_3 0.000000000
y_6_14_4 1.000000000
y_7_8_0 0.000000000
y_7_8_1 0.000000000
y_7_8_2 1.000000000
y_7_8_3 1.000000000
y_7_8_4 1.000000000
y_7_9_0 0.000000000
y_7_9_1 0.000000000
y_7_9_2 0.000000000
y_7_9_3 1.000000000
y_7_9_4 0.000000000
y_7_10_0 0.000000000
y_7_10_1 0.000000000
y_7_10_2 1.000000000
y_7_10_3 1.000000000
y_7_10_4 1.000000000
y_7_11_0 0.000000000
y_7_11_1 0.000000000
y_7_11_2 0.000000000
y_7_11_3 0.000000000
y_7_11_4 0.000000000
y_7_12_0 0.000000000
y_7_12_1 0.000000000
y_7_12_2 0.000000000
y_7_12_3 1.000000000
y_7_12_4 1.000000000
y_7_13_0 0.000000000
y_7_13_1 1.000000000
y_7_13_2 0.000000000
y_7_13_3 1.000000000
y_7_13_4 1.000000000
y_7_14_0 0.000000000
y_7_14_1 0.000000000
y_7_14_2 0.000000000
y_7_14_3 1.000000000
y_7_14_4 0.000000000
y_8_9_0 1.000000000
y_8_9_1 1.000000000
y_8_9_2 0.000000000
y_8_9_3 0.000000000
y_8_9_4 0.000000000
y_8_10_0 1.000000000
y_8_10_1 0.000000000
y_8_10_2 0.000000000
y_8_10_3 0.000000000
y_8_10_4 1.000000000
y_8_11_0 1.000000000
y_8_11_1 1.000000000
y_8_11_2 0.000000000
y_8_11_3 0.000000000
y_8_11_4 0.000000000
y_8_12_0 1.000000000
y_8_12_1 1.000000000
y_8_12_2 0.000000000
y_8_12_3 0.000000000
y_8_12_4 1.000000000
y_8_13_0 1.000000000
y_8_13_1 1.000000000
y_8_13_2 0.000000000
y_8_13_3 0.000000000
y_8_13_4 1.000000000
y_8_14_0 1.000000000
y_8_14_1 1.000000000
y_8_14_2 0.000000000
y_8_14_3 0.000000000
y_8_14_4 0.000000000
y_9_10_0 1.000000000
y_9_10_1 0.000000000
y_9_10_2 1.000000000
y_9_10_3 1.000000000
y_9_10_4 1.000000000
y_9_11_0 0.000000000
y_9_11_1 0.000000000
y_9_11_2 1.000000000
y_9_11_3 0.000000000
y_9_11_4 0.000000000
y_9_12_0 0.000000000
y_9_12_1 1.000000000
y_9_12_2 1.000000000
y_9_12_3 1.000000000
y_9_12_4 1.000000000
y_9_13_0 0.000000000
y_9_13_1 1.000000000
y_9_13_2 1.000000000
y_9_13_3 0.000000000
y_9_13_4 1.000000000
y_9_14_0 0.000000000
y_9_14_1 1.000000000
y_9_14_2 1.000000000
y_9_14_3 0.000000000
y_9_14_4 0.000000000
y_10_11_0 0.000000000
y_10_11_1 1.000000000
y_10_11_2 0.000000000
y_10_11_3 0.000000000
y_10_11_4 0.000000000
y_10_12_0 0.000000000
y_10_12_1 1.000000000
y_10_12_2 0.000000000
y_10_12_3 1.000000000
y_10_12_4 1.000000000
y_10_13_0 0.000000000
y_10_13_1 1.000000000
y_10_13_2 0.000000000
y_10_13_3 0.000000000
y_10_13_4 1.000000000
y_10_14_0 0.000000000
y_10_14_1 1.000000000
y_10_14_2 0.000000000
y_10_14_3 0.000000000
y_10_14_4 0.000000000
y_11_12_0 0.000000000
y_11_12_1 1.000000000
y_11_12_2 1.000000000
y_11_12_3 1.000000000
y_11_12_4 1.000000000
y_11_13_0 1.000000000
y_11_13_1 1.000000000
y_11_13_2 1.000000000
y_11_13_3 1.000000000
y_11_13_4 1.000000000
y_11_14_0 1.000000000
y_11_14_1 1.000000000
y_11_14_2 1.000000000
y_11_14_3 1.000000000
y_11_14_4 0.000000000
y_12_13_0 1.000000000
y_12_13_1 1.000000000
y_12_13_2 0.000000000
y_12_13_3 0.000000000
y_12_13_4 1.000000000
y_12_14_0 1.000000000
y_12_14_1 0.000000000
y_12_14_2 0.000000000
y_12_14_3 0.000000000
y_12_14_4 0.000000000
y_13_14_0 0.000000000
y_13_14_1 0.000000000
y_13_14_2 0.000000000
y_13_14_3 1.000000000
y_13_14_4 0.000000000
